p td 110 495
1 2
1 11
1 10
1 75
1 44
1 45
1 82
1 84
1 55
2 11
2 10
2 75
2 44
2 45
2 82
2 84
2 55
3 4
3 71
3 12
3 13
3 21
3 22
3 92
3 62
3 63
4 71
4 12
4 13
4 21
4 22
4 92
4 62
4 63
5 6
5 7
5 8
5 9
5 14
5 15
5 16
5 17
5 18
6 7
6 8
6 9
6 14
6 15
6 16
6 17
6 18
7 8
7 9
7 14
7 15
7 16
7 17
7 18
8 9
8 14
8 15
8 16
8 17
8 18
9 14
9 15
9 16
9 17
9 18
10 75
10 11
10 44
10 45
10 82
10 84
10 55
11 75
11 44
11 45
11 82
11 84
11 55
12 71
12 13
12 21
12 22
12 92
12 62
12 63
13 71
13 21
13 22
13 92
13 62
13 63
14 15
14 16
14 17
14 18
15 16
15 17
15 18
16 17
16 18
17 18
19 98
19 99
19 37
19 38
19 72
19 73
19 42
19 20
19 41
20 98
20 99
20 37
20 38
20 72
20 41
20 42
20 73
21 71
21 22
21 92
21 62
21 63
22 71
22 92
22 62
22 63
23 35
23 36
23 43
23 76
23 85
23 87
23 24
23 25
23 26
24 35
24 36
24 43
24 76
24 87
24 85
24 25
24 26
25 35
25 36
25 43
25 76
25 85
25 87
25 26
26 35
26 36
26 87
26 76
26 43
26 85
27 67
27 68
27 80
27 50
27 51
27 52
27 53
27 54
27 28
28 67
28 68
28 80
28 50
28 51
28 52
28 53
28 54
29 32
29 64
29 34
29 97
29 33
29 77
29 86
29 30
29 31
30 64
30 33
30 34
30 32
30 97
30 77
30 86
30 31
31 32
31 64
31 34
31 97
31 33
31 77
31 86
32 64
32 33
32 34
32 97
32 77
32 86
33 64
33 34
33 97
33 77
33 86
34 64
34 97
34 77
34 86
35 87
35 36
35 43
35 76
35 85
36 76
36 43
36 85
36 87
37 98
37 99
37 38
37 72
37 73
37 42
37 41
38 98
38 99
38 72
38 41
38 42
38 73
39 96
39 40
39 74
39 107
39 46
39 47
39 48
39 49
39 90
40 96
40 74
40 107
40 46
40 47
40 48
40 49
40 90
41 98
41 99
41 72
41 73
41 42
42 98
42 99
42 72
42 73
43 87
43 76
43 85
44 75
44 45
44 82
44 84
44 55
45 75
45 82
45 84
45 55
46 96
46 74
46 107
46 47
46 48
46 49
46 90
47 96
47 74
47 107
47 48
47 49
47 90
48 96
48 74
48 107
48 49
48 90
49 96
49 74
49 107
49 90
50 67
50 68
50 80
50 51
50 52
50 53
50 54
51 67
51 68
51 80
51 52
51 53
51 54
52 67
52 68
52 80
52 53
52 54
53 67
53 68
53 80
53 54
54 67
54 68
54 80
55 75
55 82
55 84
56 65
56 66
56 69
56 70
56 57
56 58
56 59
56 60
56 61
57 65
57 66
57 69
57 70
57 58
57 59
57 60
57 61
58 65
58 66
58 69
58 70
58 59
58 60
58 61
59 65
59 66
59 69
59 70
59 60
59 61
60 65
60 66
60 69
60 70
60 61
61 65
61 66
61 69
61 70
62 71
62 92
62 63
63 71
63 92
64 97
64 77
64 86
65 66
65 69
65 70
66 69
66 70
67 68
67 80
68 80
69 70
71 92
72 98
72 99
72 73
73 98
73 99
74 96
74 107
74 90
75 82
75 84
76 87
76 85
77 97
77 86
78 79
78 81
78 83
78 88
78 89
78 91
78 93
78 94
78 95
79 81
79 83
79 88
79 89
79 91
79 93
79 94
79 95
81 83
81 88
81 89
81 91
81 93
81 94
81 95
82 84
83 88
83 89
83 91
83 93
83 94
83 95
85 87
86 97
88 89
88 91
88 93
88 94
88 95
89 91
89 93
89 94
89 95
90 96
90 107
91 93
91 94
91 95
93 94
93 95
94 95
96 107
98 99
100 101
100 102
100 103
100 104
100 105
100 106
100 108
100 109
100 110
101 102
101 103
101 104
101 105
101 106
101 108
101 109
101 110
102 103
102 104
102 105
102 106
102 108
102 109
102 110
103 104
103 105
103 106
103 108
103 109
103 110
104 105
104 106
104 108
104 109
104 110
105 106
105 108
105 109
105 110
106 108
106 109
106 110
108 109
108 110
109 110
